22
2 41 2 
3 38 13 12 
2 51 7 
3 52 11 30 
3 49 43 37 
3 21 60 14 
2 6 19 
3 17 40 42 
3 23 58 47 
3 25 44 29 
3 26 5 10 
3 56 36 57 
3 1 16 9 
2 28 45 
3 3 59 50 
3 4 31 22 
3 48 18 32 
3 20 46 24 
3 27 8 15 
2 54 39 
2 53 33 
3 55 35 34 
